sat-competition-2018/orders/benchmarks-chi/cms-scheel-sha3-order-w2-rc-o1.cnf
c This is a CNF SAT formula in the DIMACS CNF format,
c produced with the bc2cnf translator by Tommi Junttila;
c see http://users.ics.aalto.fi/tjunttil/circuits/index.html
c cidentity <-> 1
c h1out49 <-> 53
c h1r0c49 <-> 53
c h1out48 <-> 56
c h1r0c48 <-> 56
c h1out47 <-> 59
c h1r0c47 <-> 59
c h1out46 <-> 62
c h1r0c46 <-> 62
c h1out45 <-> 65
c h1r0c45 <-> 65
c h1in49 <-> 67
c h1out44 <-> 69
c h1r0c44 <-> 69
c h1in48 <-> 71
c h1out43 <-> 73
c h1r0c43 <-> 73
c h1in47 <-> 75
c h1out42 <-> 77
c h1r0c42 <-> 77
c h1in46 <-> 79
c h1out41 <-> 81
c h1r0c41 <-> 81
c h1in45 <-> 83
c h1in43 <-> 85
c h1in41 <-> 86
c h1out40 <-> 87
c h1r0c40 <-> 87
c h1in44 <-> 89
c h1in42 <-> 91
c h1in40 <-> 92
c h1out39 <-> 93
c h1r0c39 <-> 93
c h1out38 <-> 96
c h1r0c38 <-> 96
c h1out37 <-> 99
c h1r0c37 <-> 99
c h1out36 <-> 102
c h1r0c36 <-> 102
c h1out35 <-> 105
c h1r0c35 <-> 105
c h1in39 <-> 107
c h1out34 <-> 109
c h1r0c34 <-> 109
c h1in38 <-> 111
c h1out33 <-> 113
c h1r0c33 <-> 113
c h1in37 <-> 115
c h1out32 <-> 117
c h1r0c32 <-> 117
c h1in36 <-> 119
c h1out31 <-> 121
c h1r0c31 <-> 121
c h1in35 <-> 123
c h1in33 <-> 125
c h1in31 <-> 126
c h1out30 <-> 127
c h1r0c30 <-> 127
c h1in34 <-> 129
c h1in32 <-> 131
c h1in30 <-> 132
c h1out29 <-> 133
c h1r0c29 <-> 133
c h1out28 <-> 136
c h1r0c28 <-> 136
c h1out27 <-> 139
c h1r0c27 <-> 139
c h1out26 <-> 142
c h1r0c26 <-> 142
c h1out25 <-> 145
c h1r0c25 <-> 145
c h1in29 <-> 147
c h1out24 <-> 149
c h1r0c24 <-> 149
c h1in28 <-> 151
c h1out23 <-> 153
c h1r0c23 <-> 153
c h1in27 <-> 155
c h1out22 <-> 157
c h1r0c22 <-> 157
c h1in26 <-> 159
c h1out21 <-> 161
c h1r0c21 <-> 161
c h1in25 <-> 163
c h1in23 <-> 165
c h1in21 <-> 166
c h1out20 <-> 167
c h1r0c20 <-> 167
c h1in24 <-> 169
c h1in22 <-> 171
c h1in20 <-> 172
c h1out19 <-> 173
c h1r0c19 <-> 173
c h1out18 <-> 176
c h1r0c18 <-> 176
c h1out17 <-> 179
c h1r0c17 <-> 179
c h1out16 <-> 182
c h1r0c16 <-> 182
c h1out15 <-> 185
c h1r0c15 <-> 185
c h1in19 <-> 187
c h1out14 <-> 189
c h1r0c14 <-> 189
c h1in18 <-> 191
c h1out13 <-> 193
c h1r0c13 <-> 193
c h1in17 <-> 195
c h1out12 <-> 197
c h1r0c12 <-> 197
c h1in16 <-> 199
c h1out11 <-> 201
c h1r0c11 <-> 201
c h1in15 <-> 203
c h1in13 <-> 205
c h1in11 <-> 206
c h1out10 <-> 207
c h1r0c10 <-> 207
c h1in14 <-> 209
c h1in12 <-> 211
c h1in10 <-> 212
c h1out9 <-> 213
c h1r0c9 <-> 213
c h1out8 <-> 216
c h1r0c8 <-> 216
c h1out7 <-> 219
c h1r0c7 <-> 219
c h1out6 <-> 222
c h1r0c6 <-> 222
c h1out5 <-> 225
c h1r0c5 <-> 225
c h1in9 <-> 227
c h1out4 <-> 229
c h1r0c4 <-> 229
c h1in8 <-> 231
c h1out3 <-> 233
c h1r0c3 <-> 233
c h1in7 <-> 235
c h1out2 <-> 237
c h1r0c2 <-> 237
c h1in6 <-> 239
c h1out1 <-> 241
c h1r0c1 <-> 241
c h1in5 <-> 243
c h1in3 <-> 245
c h1in1 <-> 246
c h1out0 <-> 247
c h1r0c0 <-> 247
c h1in4 <-> 249
c h1in2 <-> 251
c h1in0 <-> 252
p cnf 252 703
1 0
-2 3 0
-2 4 0
-2 5 0
-2 6 0
-2 7 0
-2 8 0
-2 9 0
-2 10 0
-2 11 0
-2 12 0
-2 13 0
-2 14 0
-2 15 0
-2 16 0
-2 17 0
-2 18 0
-2 19 0
-2 20 0
-2 21 0
-2 22 0
-2 23 0
-2 24 0
-2 25 0
-2 26 0
-2 27 0
-2 28 0
-2 29 0
-2 30 0
-2 31 0
-2 32 0
-2 33 0
-2 34 0
-2 35 0
-2 36 0
-2 37 0
-2 38 0
-2 39 0
-2 40 0
-2 41 0
-2 42 0
-2 43 0
-2 44 0
-2 45 0
-2 46 0
-2 47 0
-2 48 0
-2 49 0
-2 50 0
-2 51 0
-2 52 0
2 -52 -51 -50 -49 -48 -47 -46 -45 -44 -43 -42 -41 -40 -39 -38 -37 -36 -35 -34 -33 -32 -31 -30 -29 -28 -27 -26 -25 -24 -23 -22 -21 -20 -19 -18 -17 -16 -15 -14 -13 -12 -11 -10 -9 -8 -7 -6 -5 -4 -3 0
-2 0
3 67 53 0
3 -67 -53 0
-3 67 -53 0
-3 -67 53 0
4 71 56 0
4 -71 -56 0
-4 71 -56 0
-4 -71 56 0
5 75 59 0
5 -75 -59 0
-5 75 -59 0
-5 -75 59 0
6 79 62 0
6 -79 -62 0
-6 79 -62 0
-6 -79 62 0
7 83 65 0
7 -83 -65 0
-7 83 -65 0
-7 -83 65 0
8 89 69 0
8 -89 -69 0
-8 89 -69 0
-8 -89 69 0
9 85 73 0
9 -85 -73 0
-9 85 -73 0
-9 -85 73 0
10 91 77 0
10 -91 -77 0
-10 91 -77 0
-10 -91 77 0
11 86 81 0
11 -86 -81 0
-11 86 -81 0
-11 -86 81 0
12 92 87 0
12 -92 -87 0
-12 92 -87 0
-12 -92 87 0
13 107 93 0
13 -107 -93 0
-13 107 -93 0
-13 -107 93 0
14 111 96 0
14 -111 -96 0
-14 111 -96 0
-14 -111 96 0
15 115 99 0
15 -115 -99 0
-15 115 -99 0
-15 -115 99 0
16 119 102 0
16 -119 -102 0
-16 119 -102 0
-16 -119 102 0
17 123 105 0
17 -123 -105 0
-17 123 -105 0
-17 -123 105 0
18 129 109 0
18 -129 -109 0
-18 129 -109 0
-18 -129 109 0
19 125 113 0
19 -125 -113 0
-19 125 -113 0
-19 -125 113 0
20 131 117 0
20 -131 -117 0
-20 131 -117 0
-20 -131 117 0
21 126 121 0
21 -126 -121 0
-21 126 -121 0
-21 -126 121 0
22 132 127 0
22 -132 -127 0
-22 132 -127 0
-22 -132 127 0
23 147 133 0
23 -147 -133 0
-23 147 -133 0
-23 -147 133 0
24 151 136 0
24 -151 -136 0
-24 151 -136 0
-24 -151 136 0
25 155 139 0
25 -155 -139 0
-25 155 -139 0
-25 -155 139 0
26 159 142 0
26 -159 -142 0
-26 159 -142 0
-26 -159 142 0
27 163 145 0
27 -163 -145 0
-27 163 -145 0
-27 -163 145 0
28 169 149 0
28 -169 -149 0
-28 169 -149 0
-28 -169 149 0
29 165 153 0
29 -165 -153 0
-29 165 -153 0
-29 -165 153 0
30 171 157 0
30 -171 -157 0
-30 171 -157 0
-30 -171 157 0
31 166 161 0
31 -166 -161 0
-31 166 -161 0
-31 -166 161 0
32 172 167 0
32 -172 -167 0
-32 172 -167 0
-32 -172 167 0
33 187 173 0
33 -187 -173 0
-33 187 -173 0
-33 -187 173 0
34 191 176 0
34 -191 -176 0
-34 191 -176 0
-34 -191 176 0
35 195 179 0
35 -195 -179 0
-35 195 -179 0
-35 -195 179 0
36 199 182 0
36 -199 -182 0
-36 199 -182 0
-36 -199 182 0
37 203 185 0
37 -203 -185 0
-37 203 -185 0
-37 -203 185 0
38 209 189 0
38 -209 -189 0
-38 209 -189 0
-38 -209 189 0
39 205 193 0
39 -205 -193 0
-39 205 -193 0
-39 -205 193 0
40 211 197 0
40 -211 -197 0
-40 211 -197 0
-40 -211 197 0
41 206 201 0
41 -206 -201 0
-41 206 -201 0
-41 -206 201 0
42 212 207 0
42 -212 -207 0
-42 212 -207 0
-42 -212 207 0
43 227 213 0
43 -227 -213 0
-43 227 -213 0
-43 -227 213 0
44 231 216 0
44 -231 -216 0
-44 231 -216 0
-44 -231 216 0
45 235 219 0
45 -235 -219 0
-45 235 -219 0
-45 -235 219 0
46 239 222 0
46 -239 -222 0
-46 239 -222 0
-46 -239 222 0
47 243 225 0
47 -243 -225 0
-47 243 -225 0
-47 -243 225 0
48 249 229 0
48 -249 -229 0
-48 249 -229 0
-48 -249 229 0
49 245 233 0
49 -245 -233 0
-49 245 -233 0
-49 -245 233 0
50 251 237 0
50 -251 -237 0
-50 251 -237 0
-50 -251 237 0
51 246 241 0
51 -246 -241 0
-51 246 -241 0
-51 -246 241 0
52 252 247 0
52 -252 -247 0
-52 252 -247 0
-52 -252 247 0
53 67 -54 0
53 -67 54 0
-53 67 54 0
-53 -67 -54 0
-54 55 0
-54 85 0
54 -85 -55 0
55 86 0
-55 -86 0
56 71 -57 0
56 -71 57 0
-56 71 57 0
-56 -71 -57 0
-57 58 0
-57 91 0
57 -91 -58 0
58 92 0
-58 -92 0
59 75 -60 0
59 -75 60 0
-59 75 60 0
-59 -75 -60 0
-60 61 0
-60 86 0
60 -86 -61 0
61 67 0
-61 -67 0
62 79 -63 0
62 -79 63 0
-62 79 63 0
-62 -79 -63 0
-63 64 0
-63 92 0
63 -92 -64 0
64 71 0
-64 -71 0
65 83 -66 0
65 -83 66 0
-65 83 66 0
-65 -83 -66 0
-66 67 0
-66 68 0
66 -68 -67 0
68 75 0
-68 -75 0
69 89 -70 0
69 -89 70 0
-69 89 70 0
-69 -89 -70 0
-70 71 0
-70 72 0
70 -72 -71 0
72 79 0
-72 -79 0
73 85 -74 0
73 -85 74 0
-73 85 74 0
-73 -85 -74 0
-74 75 0
-74 76 0
74 -76 -75 0
76 83 0
-76 -83 0
77 91 -78 0
77 -91 78 0
-77 91 78 0
-77 -91 -78 0
-78 79 0
-78 80 0
78 -80 -79 0
80 89 0
-80 -89 0
81 86 -82 0
81 -86 82 0
-81 86 82 0
-81 -86 -82 0
-82 83 0
-82 84 0
82 -84 -83 0
84 85 0
-84 -85 0
87 92 -88 0
87 -92 88 0
-87 92 88 0
-87 -92 -88 0
-88 89 0
-88 90 0
88 -90 -89 0
90 91 0
-90 -91 0
93 107 -94 0
93 -107 94 0
-93 107 94 0
-93 -107 -94 0
-94 95 0
-94 125 0
94 -125 -95 0
95 126 0
-95 -126 0
96 111 -97 0
96 -111 97 0
-96 111 97 0
-96 -111 -97 0
-97 98 0
-97 131 0
97 -131 -98 0
98 132 0
-98 -132 0
99 115 -100 0
99 -115 100 0
-99 115 100 0
-99 -115 -100 0
-100 101 0
-100 126 0
100 -126 -101 0
101 107 0
-101 -107 0
102 119 -103 0
102 -119 103 0
-102 119 103 0
-102 -119 -103 0
-103 104 0
-103 132 0
103 -132 -104 0
104 111 0
-104 -111 0
105 123 -106 0
105 -123 106 0
-105 123 106 0
-105 -123 -106 0
-106 107 0
-106 108 0
106 -108 -107 0
108 115 0
-108 -115 0
109 129 -110 0
109 -129 110 0
-109 129 110 0
-109 -129 -110 0
-110 111 0
-110 112 0
110 -112 -111 0
112 119 0
-112 -119 0
113 125 -114 0
113 -125 114 0
-113 125 114 0
-113 -125 -114 0
-114 115 0
-114 116 0
114 -116 -115 0
116 123 0
-116 -123 0
117 131 -118 0
117 -131 118 0
-117 131 118 0
-117 -131 -118 0
-118 119 0
-118 120 0
118 -120 -119 0
120 129 0
-120 -129 0
121 126 -122 0
121 -126 122 0
-121 126 122 0
-121 -126 -122 0
-122 123 0
-122 124 0
122 -124 -123 0
124 125 0
-124 -125 0
127 132 -128 0
127 -132 128 0
-127 132 128 0
-127 -132 -128 0
-128 129 0
-128 130 0
128 -130 -129 0
130 131 0
-130 -131 0
133 147 -134 0
133 -147 134 0
-133 147 134 0
-133 -147 -134 0
-134 135 0
-134 165 0
134 -165 -135 0
135 166 0
-135 -166 0
136 151 -137 0
136 -151 137 0
-136 151 137 0
-136 -151 -137 0
-137 138 0
-137 171 0
137 -171 -138 0
138 172 0
-138 -172 0
139 155 -140 0
139 -155 140 0
-139 155 140 0
-139 -155 -140 0
-140 141 0
-140 166 0
140 -166 -141 0
141 147 0
-141 -147 0
142 159 -143 0
142 -159 143 0
-142 159 143 0
-142 -159 -143 0
-143 144 0
-143 172 0
143 -172 -144 0
144 151 0
-144 -151 0
145 163 -146 0
145 -163 146 0
-145 163 146 0
-145 -163 -146 0
-146 147 0
-146 148 0
146 -148 -147 0
148 155 0
-148 -155 0
149 169 -150 0
149 -169 150 0
-149 169 150 0
-149 -169 -150 0
-150 151 0
-150 152 0
150 -152 -151 0
152 159 0
-152 -159 0
153 165 -154 0
153 -165 154 0
-153 165 154 0
-153 -165 -154 0
-154 155 0
-154 156 0
154 -156 -155 0
156 163 0
-156 -163 0
157 171 -158 0
157 -171 158 0
-157 171 158 0
-157 -171 -158 0
-158 159 0
-158 160 0
158 -160 -159 0
160 169 0
-160 -169 0
161 166 -162 0
161 -166 162 0
-161 166 162 0
-161 -166 -162 0
-162 163 0
-162 164 0
162 -164 -163 0
164 165 0
-164 -165 0
167 172 -168 0
167 -172 168 0
-167 172 168 0
-167 -172 -168 0
-168 169 0
-168 170 0
168 -170 -169 0
170 171 0
-170 -171 0
173 187 -174 0
173 -187 174 0
-173 187 174 0
-173 -187 -174 0
-174 175 0
-174 205 0
174 -205 -175 0
175 206 0
-175 -206 0
176 191 -177 0
176 -191 177 0
-176 191 177 0
-176 -191 -177 0
-177 178 0
-177 211 0
177 -211 -178 0
178 212 0
-178 -212 0
179 195 -180 0
179 -195 180 0
-179 195 180 0
-179 -195 -180 0
-180 181 0
-180 206 0
180 -206 -181 0
181 187 0
-181 -187 0
182 199 -183 0
182 -199 183 0
-182 199 183 0
-182 -199 -183 0
-183 184 0
-183 212 0
183 -212 -184 0
184 191 0
-184 -191 0
185 203 -186 0
185 -203 186 0
-185 203 186 0
-185 -203 -186 0
-186 187 0
-186 188 0
186 -188 -187 0
188 195 0
-188 -195 0
189 209 -190 0
189 -209 190 0
-189 209 190 0
-189 -209 -190 0
-190 191 0
-190 192 0
190 -192 -191 0
192 199 0
-192 -199 0
193 205 -194 0
193 -205 194 0
-193 205 194 0
-193 -205 -194 0
-194 195 0
-194 196 0
194 -196 -195 0
196 203 0
-196 -203 0
197 211 -198 0
197 -211 198 0
-197 211 198 0
-197 -211 -198 0
-198 199 0
-198 200 0
198 -200 -199 0
200 209 0
-200 -209 0
201 206 -202 0
201 -206 202 0
-201 206 202 0
-201 -206 -202 0
-202 203 0
-202 204 0
202 -204 -203 0
204 205 0
-204 -205 0
207 212 -208 0
207 -212 208 0
-207 212 208 0
-207 -212 -208 0
-208 209 0
-208 210 0
208 -210 -209 0
210 211 0
-210 -211 0
213 227 -214 0
213 -227 214 0
-213 227 214 0
-213 -227 -214 0
-214 215 0
-214 245 0
214 -245 -215 0
215 246 0
-215 -246 0
216 231 -217 0
216 -231 217 0
-216 231 217 0
-216 -231 -217 0
-217 218 0
-217 251 0
217 -251 -218 0
218 252 0
-218 -252 0
219 235 -220 0
219 -235 220 0
-219 235 220 0
-219 -235 -220 0
-220 221 0
-220 246 0
220 -246 -221 0
221 227 0
-221 -227 0
222 239 -223 0
222 -239 223 0
-222 239 223 0
-222 -239 -223 0
-223 224 0
-223 252 0
223 -252 -224 0
224 231 0
-224 -231 0
225 243 -226 0
225 -243 226 0
-225 243 226 0
-225 -243 -226 0
-226 227 0
-226 228 0
226 -228 -227 0
228 235 0
-228 -235 0
229 249 -230 0
229 -249 230 0
-229 249 230 0
-229 -249 -230 0
-230 231 0
-230 232 0
230 -232 -231 0
232 239 0
-232 -239 0
233 245 -234 0
233 -245 234 0
-233 245 234 0
-233 -245 -234 0
-234 235 0
-234 236 0
234 -236 -235 0
236 243 0
-236 -243 0
237 251 -238 0
237 -251 238 0
-237 251 238 0
-237 -251 -238 0
-238 239 0
-238 240 0
238 -240 -239 0
240 249 0
-240 -249 0
241 246 -242 0
241 -246 242 0
-241 246 242 0
-241 -246 -242 0
-242 243 0
-242 244 0
242 -244 -243 0
244 245 0
-244 -245 0
247 252 -248 0
247 -252 248 0
-247 252 248 0
-247 -252 -248 0
-248 249 0
-248 250 0
248 -250 -249 0
250 251 0
-250 -251 0
